language Essence 1.3

letting blksize_delta be
        function(1 --> 9, 2 --> 9, 3 --> 9, 4 --> 9, 5 --> 9, 6 --> 9, 7 --> 9, 8 --> 10, 9 --> 10, 10 --> 10,
                 11 --> 10, 12 --> 9, 13 --> 9, 14 --> 9, 15 --> 9, 16 --> 10, 17 --> 9)
letting maxcars be
        function(1 --> 9, 2 --> 10, 3 --> 9, 4 --> 9, 5 --> 9, 6 --> 9, 7 --> 9, 8 --> 9, 9 --> 9, 10 --> 10, 11 --> 10,
                 12 --> 9, 13 --> 9, 14 --> 9, 15 --> 9, 16 --> 10, 17 --> 10)
letting n_cars be 222
letting n_classes be 31
letting n_options be 17
letting quantity be
        function(1 --> 12, 2 --> 7, 3 --> 7, 4 --> 7, 5 --> 7, 6 --> 7, 7 --> 7, 8 --> 7, 9 --> 7, 10 --> 7, 11 --> 7,
                 12 --> 7, 13 --> 7, 14 --> 7, 15 --> 7, 16 --> 7, 17 --> 7, 18 --> 7, 19 --> 7, 20 --> 7, 21 --> 7,
                 22 --> 7, 23 --> 7, 24 --> 7, 25 --> 7, 26 --> 7, 27 --> 7, 28 --> 7, 29 --> 7, 30 --> 7, 31 --> 7)
letting usage be
        relation((1, 10), (2, 5), (2, 11), (2, 14), (3, 5), (3, 7), (3, 9), (3, 10), (3, 14), (4, 3), (4, 5), (4, 7),
                 (4, 9), (4, 10), (4, 14), (5, 5), (5, 7), (5, 9), (5, 12), (5, 14), (5, 16), (5, 17), (6, 4), (6, 6),
                 (6, 14), (6, 15), (7, 2), (7, 3), (7, 5), (7, 6), (7, 7), (7, 15), (8, 3), (8, 5), (8, 6), (8, 10),
                 (8, 14), (8, 17), (9, 1), (9, 2), (9, 8), (9, 9), (9, 10), (9, 14), (10, 7), (10, 14), (10, 15),
                 (11, 2), (11, 3), (11, 4), (11, 5), (11, 8), (12, 1), (12, 3), (12, 10), (12, 11), (12, 14), (12, 17),
                 (13, 1), (13, 11), (14, 6), (14, 12), (14, 13), (15, 6), (15, 8), (15, 9), (15, 10), (15, 15), (16, 4),
                 (16, 13), (17, 14), (17, 15), (18, 1), (18, 4), (18, 5), (18, 7), (18, 9), (18, 13), (18, 14), (19, 5),
                 (19, 17), (20, 3), (20, 9), (20, 12), (20, 14), (21, 2), (21, 5), (21, 7), (21, 9), (21, 11), (21, 14),
                 (22, 4), (22, 7), (22, 10), (22, 12), (22, 13), (22, 16), (23, 4), (23, 6), (23, 11), (23, 12),
                 (23, 17), (24, 2), (24, 6), (24, 10), (24, 11), (25, 6), (25, 7), (25, 11), (25, 14), (26, 2), (26, 4),
                 (26, 17), (27, 5), (27, 7), (27, 11), (27, 12), (27, 15), (28, 3), (28, 4), (28, 11), (28, 16),
                 (29, 2), (29, 3), (29, 12), (29, 17), (30, 8), (30, 10), (30, 16), (31, 2), (31, 3), (31, 11),
                 (31, 16))
$ Visualisation for usage
$  1 10
$  2  5
$  2 11
$  2 14
$  3  5
$  3  7
$  3  9
$  3 10
$  3 14
$  4  3
$  4  5
$  4  7
$  4  9
$  4 10
$  4 14
$  5  5
$  5  7
$  5  9
$  5 12
$  5 14
$  5 16
$  5 17
$  6  4
$  6  6
$  6 14
$  6 15
$  7  2
$  7  3
$  7  5
$  7  6
$  7  7
$  7 15
$  8  3
$  8  5
$  8  6
$  8 10
$  8 14
$  8 17
$  9  1
$  9  2
$  9  8
$  9  9
$  9 10
$  9 14
$ 10  7
$ 10 14
$ 10 15
$ 11  2
$ 11  3
$ 11  4
$ 11  5
$ 11  8
$ 12  1
$ 12  3
$ 12 10
$ 12 11
$ 12 14
$ 12 17
$ 13  1
$ 13 11
$ 14  6
$ 14 12
$ 14 13
$ 15  6
$ 15  8
$ 15  9
$ 15 10
$ 15 15
$ 16  4
$ 16 13
$ 17 14
$ 17 15
$ 18  1
$ 18  4
$ 18  5
$ 18  7
$ 18  9
$ 18 13
$ 18 14
$ 19  5
$ 19 17
$ 20  3
$ 20  9
$ 20 12
$ 20 14
$ 21  2
$ 21  5
$ 21  7
$ 21  9
$ 21 11
$ 21 14
$ 22  4
$ 22  7
$ 22 10
$ 22 12
$ 22 13
$ 22 16
$ 23  4
$ 23  6
$ 23 11
$ 23 12
$ 23 17
$ 24  2
$ 24  6
$ 24 10
$ 24 11
$ 25  6
$ 25  7
$ 25 11
$ 25 14
$ 26  2
$ 26  4
$ 26 17
$ 27  5
$ 27  7
$ 27 11
$ 27 12
$ 27 15
$ 28  3
$ 28  4
$ 28 11
$ 28 16
$ 29  2
$ 29  3
$ 29 12
$ 29 17
$ 30  8
$ 30 10
$ 30 16
$ 31  2
$ 31  3
$ 31 11
$ 31 16

